(set-info :smt-lib-version 2.6)
(set-logic QF_BV)
(set-info :source |
This benchmark demonstrates the need for propagating unconstrained bit-vectors.

Contributed by Robert Brummayer (robert.brummayer@gmail.com)
|)
(set-info :category "crafted")
(set-info :status sat)
(declare-fun v11 () (_ BitVec 1))
(declare-fun v10 () (_ BitVec 1))
(declare-fun v1 () (_ BitVec 1024))
(declare-fun v14 () (_ BitVec 1024))
(declare-fun v3 () (_ BitVec 1024))
(declare-fun v2 () (_ BitVec 1024))
(declare-fun v5 () (_ BitVec 1024))
(declare-fun v4 () (_ BitVec 1024))
(declare-fun v7 () (_ BitVec 1024))
(declare-fun v6 () (_ BitVec 1024))
(declare-fun v9 () (_ BitVec 1))
(declare-fun v8 () (_ BitVec 1024))
(declare-fun v12 () (_ BitVec 1024))
(declare-fun v13 () (_ BitVec 1024))
(assert (not (= (ite (not (= (ite (= (_ bv1 1) (bvor v10 v11)) (bvudiv (bvudiv (bvudiv v1 v2) v3) v4) (bvudiv (bvudiv (bvudiv v5 v6) v7) v8)) (bvudiv v13 v14))) (_ bv1 1) (_ bv0 1)) (_ bv0 1))))
(check-sat)
(exit)
